NAME: random103
TYPE: TSP
DIMENSION: 103
EDGE_WEIGHT_TYPE: EXPLICIT
EDGE_WEIGHT_FORMAT: FULL_MATRIX
EDGE_WEIGHT_SECTION
0 650 650 650 13 650 650 29 21 650 650 650 650 650 17 12 15 26 650 19 650 650 650 15 650 650 21 19 650 650 14 650 650 15 650 650 650 650 650 650 650 650 650 32 650 650 14 650 650 650 650 10 650 650 4 650 650 19 650 650 650 650 650 650 650 28 650 650 650 650 34 650 650 650 650 650 650 36 650 650 650 650 650 650 32 650 650 650 650 650 5 29 21 17 650 650 650 650 23 650 650 650 18
650 0 650 650 650 650 650 650 650 650 650 650 650 650 650 650 650 650 10 650 650 650 650 650 650 650 650 650 650 650 650 650 14 650 650 650 15 650 650 650 650 650 5 650 650 22 650 650 650 650 12 650 650 650 650 12 650 650 650 650 650 9 650 650 650 650 650 650 13 26 650 650 650 650 650 25 650 650 650 650 650 650 650 18 650 650 650 35 3 650 650 650 650 650 30 28 650 650 650 650 650 21 650
650 650 0 650 650 650 17 650 27 650 650 25 20 650 650 650 650 24 650 650 650 17 650 650 16 25 650 15 650 650 650 650 650 650 650 650 650 650 18 17 650 29 650 650 13 650 650 650 650 650 650 650 650 650 650 650 650 16 650 650 650 650 650 30 12 650 650 650 650 32 650 34 12 650 650 650 650 650 650 650 650 650 650 650 6 24 650 650 650 12 28 23 650 24 650 650 650 37 650 28 28 650 650
650 650 650 0 650 650 650 650 650 34 20 650 24 650 650 650 650 650 650 650 650 650 23 650 650 650 650 650 650 650 650 650 650 650 650 16 650 650 25 650 33 36 650 650 650 650 650 58 15 650 650 650 30 650 650 650 10 650 29 650 18 650 15 29 650 650 650 7 650 650 650 25 650 650 12 650 35 650 650 650 650 18 650 650 650 650 650 650 650 650 650 650 650 650 650 650 650 650 650 650 650 650 650
13 650 650 650 0 650 650 650 16 650 650 650 650 650 650 16 28 22 650 30 650 650 650 650 650 650 9 23 650 650 650 650 650 3 32 650 650 650 650 650 650 650 650 24 650 650 12 650 650 650 650 21 650 650 17 650 650 29 650 650 650 650 650 650 650 16 650 650 650 650 28 650 650 650 650 650 650 25 650 650 21 650 650 650 650 650 650 650 650 650 17 650 650 650 650 650 650 650 650 650 650 650 6
650 650 650 650 650 0 650 650 650 11 650 650 650 650 650 650 650 650 24 650 650 650 22 650 650 650 650 650 650 650 650 650 12 650 650 47 14 650 650 650 650 650 21 650 650 650 650 650 650 650 650 650 650 650 650 17 650 650 18 650 650 650 650 24 650 650 650 650 32 23 650 23 650 650 650 3 10 650 650 650 650 650 650 650 650 650 650 650 650 650 650 650 650 650 650 650 650 650 650 650 650 650 650
650 650 17 650 650 650 0 650 650 33 8 650 6 650 650 650 650 650 650 650 650 4 650 650 9 650 650 650 650 650 650 650 650 650 650 650 650 650 1 6 650 650 650 650 13 650 650 650 650 650 650 650 22 650 650 650 650 650 650 650 650 650 650 20 11 650 650 650 650 650 650 21 650 650 650 650 650 650 650 650 650 9 650 650 19 650 650 650 650 12 650 650 650 650 650 650 650 650 650 29 650 650 650
29 650 650 650 650 650 650 0 650 650 650 650 650 650 14 29 18 650 650 12 13 650 650 14 650 650 650 650 21 650 16 4 650 650 650 650 650 650 650 650 650 650 650 52 650 650 36 650 650 650 650 21 650 36 650 650 650 650 650 650 650 650 650 650 650 650 18 650 650 650 650 650 650 650 650 650 650 650 13 650 650 650 650 650 650 650 17 650 650 650 650 650 10 650 650 650 650 650 12 650 650 650 45
21 650 27 650 16 650 650 650 0 650 650 24 650 25 650 30 31 7 650 650 650 650 650 650 650 11 21 14 650 650 33 650 650 15 45 650 650 30 650 650 650 650 650 39 650 28 27 650 650 650 650 30 650 650 24 650 650 25 650 22 650 650 650 650 650 21 650 650 650 650 13 650 24 28 650 650 650 20 650 24 24 650 650 650 30 24 650 22 650 650 21 10 650 30 650 650 650 650 650 650 44 650 21
650 650 650 34 650 11 33 650 650 0 37 31 650 650 650 650 650 650 26 650 650 650 12 650 650 650 650 650 650 650 650 650 19 650 650 40 23 650 32 650 650 650 27 650 650 35 650 650 650 650 650 650 650 650 650 26 650 650 14 650 650 650 49 14 31 650 650 38 650 18 650 12 34 650 650 14 1 650 650 650 650 35 650 650 650 650 650 650 29 32 650 650 650 650 650 23 650 650 650 23 650 650 650
650 650 650 20 650 650 8 650 650 37 0 650 4 650 650 650 650 650 650 650 650 7 28 650 10 650 650 650 650 650 650 650 650 650 650 650 650 650 8 7 21 21 650 650 15 650 650 43 650 650 650 650 16 650 650 650 26 650 650 650 650 650 24 25 19 650 650 650 650 650 650 25 650 650 650 650 650 650 650 650 650 3 650 650 650 650 650 650 650 650 650 650 650 650 650 650 650 650 650 650 650 650 650
650 650 25 650 650 650 650 650 24 31 650 0 650 650 650 650 650 17 22 650 650 650 650 650 650 12 650 25 650 650 650 650 32 650 650 650 650 650 650 650 650 650 650 650 650 13 650 650 650 650 650 650 650 650 650 650 650 650 650 9 650 28 650 23 650 650 650 650 650 13 15 650 13 650 650 650 650 33 650 650 650 650 650 22 650 1 650 25 650 19 650 13 650 650 650 8 650 650 650 8 650 28 650
650 650 20 24 650 650 6 650 650 650 4 650 0 650 650 650 650 650 650 650 650 4 30 650 6 650 650 650 650 650 650 650 650 650 650 650 650 650 6 3 20 19 650 650 11 650 650 650 650 650 650 650 16 650 650 650 650 650 650 650 650 650 28 25 16 650 650 650 650 650 650 26 650 650 650 650 650 650 650 650 650 6 650 650 650 650 650 650 650 650 650 650 650 650 650 650 650 35 650 650 36 650 650
650 650 650 650 650 650 650 650 25 650 650 650 650 0 650 650 650 26 650 650 650 650 650 650 650 26 650 650 650 650 650 650 650 650 37 650 650 13 650 650 650 650 650 650 650 27 650 650 650 650 43 650 650 650 650 650 650 650 650 26 650 650 650 650 650 17 650 650 650 650 20 650 650 3 650 650 650 5 650 4 14 650 650 25 650 650 650 9 650 650 650 650 650 650 19 650 650 650 650 650 650 22 650
17 650 650 650 650 650 650 14 650 650 650 650 650 650 0 21 5 650 650 10 18 650 650 5 650 650 650 650 650 650 3 13 650 650 650 650 650 650 650 650 650 650 650 44 650 650 650 650 650 650 650 10 650 650 12 650 650 18 650 650 650 650 650 650 650 650 650 650 650 650 650 650 650 650 650 650 650 650 24 650 650 650 15 650 650 650 16 650 650 650 14 650 4 10 650 650 15 650 7 650 21 650 650
12 650 650 650 16 650 650 29 30 650 650 650 650 650 21 0 22 650 650 17 650 650 650 16 650 650 20 650 650 650 19 31 650 19 36 650 650 650 650 650 650 650 650 24 650 650 7 650 650 650 650 10 650 650 13 650 650 650 650 650 650 650 650 650 650 650 650 650 650 650 650 650 650 650 650 650 650 650 42 650 650 650 650 650 650 650 650 650 650 650 16 650 24 650 650 650 650 650 650 650 650 650 17
15 650 650 650 28 650 650 18 31 650 650 650 650 650 5 22 0 650 650 14 20 650 650 9 650 650 650 22 650 650 5 17 650 650 650 650 650 650 650 650 650 650 650 650 650 650 650 650 650 650 650 12 650 650 11 650 650 13 650 650 650 650 650 650 650 650 18 650 650 650 650 650 650 650 650 650 650 650 650 650 650 650 14 650 26 650 15 650 650 650 12 650 9 5 650 650 14 650 8 650 19 650 650
26 650 24 650 22 650 650 650 7 650 650 17 650 26 650 650 650 0 650 650 650 650 650 650 650 5 650 14 650 650 650 650 650 22 650 650 650 650 650 650 650 650 650 650 650 22 650 650 650 650 650 650 650 650 29 650 650 26 650 16 650 650 650 650 650 26 650 650 650 650 9 650 19 650 650 650 650 22 650 650 28 650 650 650 28 17 650 20 650 26 25 4 650 32 650 650 650 650 650 25 650 650 650
650 10 650 650 650 24 650 650 650 26 650 22 650 650 650 650 650 650 0 650 650 650 650 650 650 31 650 650 650 650 650 650 13 650 650 650 17 650 650 650 650 650 9 650 650 15 650 650 650 650 21 650 650 650 650 16 650 650 39 21 650 12 650 29 650 650 650 650 23 17 30 32 650 650 650 24 26 650 650 650 650 650 650 15 650 22 650 31 9 37 650 650 650 650 31 18 650 650 650 18 650 21 650
19 650 650 650 30 650 650 12 650 650 650 650 650 650 10 17 14 650 650 0 23 650 650 6 650 650 36 650 650 650 10 14 650 650 650 650 650 650 650 650 650 650 650 39 650 650 24 650 650 650 650 9 650 650 16 650 650 650 650 650 650 650 650 650 650 650 650 650 650 650 650 650 650 650 650 650 650 650 25 650 650 650 650 650 650 650 650 650 650 650 19 650 10 650 650 650 650 650 15 650 650 650 33
650 650 650 650 650 650 650 13 650 650 650 650 650 650 18 650 20 650 650 23 0 650 650 22 650 650 650 650 8 10 650 9 650 650 650 650 650 650 650 650 650 650 650 62 650 650 650 650 650 8 650 650 650 23 650 650 650 650 650 650 650 650 650 650 650 650 7 650 650 650 650 650 650 650 650 650 650 650 10 650 650 650 11 650 650 650 7 650 650 650 650 650 14 21 650 650 9 25 12 650 15 650 650
650 650 17 650 650 650 4 650 650 650 7 650 4 650 650 650 650 650 650 650 650 0 650 650 6 650 650 32 650 650 650 650 650 650 650 650 650 650 5 2 650 21 650 650 9 650 650 650 650 650 650 650 18 650 650 650 650 650 650 650 650 650 650 24 13 650 650 650 650 650 650 25 21 650 650 650 650 650 650 650 650 9 650 650 17 650 650 650 650 14 650 650 650 650 650 650 650 650 650 650 34 650 650
650 650 650 23 650 22 650 650 650 12 28 650 30 650 650 650 650 650 650 650 650 650 0 650 650 650 650 650 650 650 650 650 31 650 650 30 650 650 25 650 47 650 650 650 650 650 650 650 32 650 650 650 43 650 650 650 32 650 12 650 35 650 37 12 28 650 650 27 650 24 650 7 650 650 30 25 12 650 650 650 650 25 650 650 650 650 650 650 650 650 650 650 650 650 650 650 650 650 650 28 650 650 650
15 650 650 650 650 650 650 14 650 650 650 650 650 650 5 16 9 650 650 6 22 650 650 0 650 650 650 650 650 650 4 15 650 650 650 650 650 650 650 650 650 650 650 40 650 650 23 650 650 650 650 7 650 650 11 650 650 650 650 650 650 650 650 650 650 650 650 650 650 650 650 650 650 650 650 650 650 650 26 650 650 650 650 650 650 650 650 650 650 650 14 650 8 14 650 650 650 650 12 650 650 650 650
650 650 16 650 650 650 9 650 650 650 10 650 6 650 650 650 650 650 650 650 650 6 650 650 0 650 650 650 650 36 650 650 650 650 650 650 650 650 10 4 19 16 650 650 5 650 650 36 650 650 650 650 15 650 650 650 650 28 650 650 650 650 32 650 16 650 650 650 650 650 650 650 650 650 650 650 650 650 650 650 650 12 650 650 15 650 650 650 650 650 650 650 650 650 650 650 650 30 650 650 29 650 650
650 650 25 650 650 650 650 650 11 650 650 12 650 26 650 650 650 5 31 650 650 650 650 650 650 0 650 17 650 650 650 650 650 650 650 650 650 650 650 650 650 650 650 650 650 17 650 650 650 650 650 650 650 650 650 650 650 650 650 11 650 650 650 650 650 29 650 650 650 26 7 650 17 650 650 650 650 23 650 650 650 650 650 25 650 12 650 19 650 24 30 2 650 650 650 20 650 650 650 20 650 650 650
21 650 650 650 9 650 650 650 21 650 650 650 650 650 650 20 650 650 650 36 650 650 650 650 650 650 0 650 650 650 650 650 650 7 24 650 650 21 650 650 650 650 650 18 650 650 14 650 650 650 650 650 650 650 650 650 650 650 650 650 650 650 650 650 650 9 650 650 650 650 30 650 650 650 650 650 650 22 650 22 14 650 650 650 650 650 650 650 650 650 650 650 650 650 45 650 650 650 650 650 650 650 3
19 650 15 650 23 650 650 650 14 650 650 25 650 650 650 650 22 14 650 650 650 32 650 650 650 17 650 0 650 650 650 650 650 24 650 650 650 650 650 650 650 42 650 650 27 650 32 650 650 650 650 27 650 650 20 650 650 12 650 28 650 650 650 40 24 34 650 650 650 650 23 650 18 650 650 650 650 34 650 650 650 650 30 650 16 25 650 34 650 23 16 15 650 19 650 650 650 650 30 31 31 650 650
650 650 650 650 650 650 650 21 650 650 650 650 650 650 650 650 650 650 650 650 8 650 650 650 650 650 650 650 0 4 650 17 650 650 650 650 650 650 650 650 37 33 650 68 650 650 650 17 650 4 650 650 650 16 650 650 650 650 650 650 650 650 650 650 650 650 6 650 650 650 650 650 650 650 650 650 650 650 14 650 650 650 11 650 650 650 9 650 650 650 650 650 21 24 650 650 10 17 17 650 12 650 650
650 650 650 650 650 650 650 650 650 650 650 650 650 650 650 650 650 650 650 650 10 650 650 650 36 650 650 650 4 0 650 19 650 650 650 650 650 650 650 650 34 29 650 650 32 650 650 15 650 3 650 650 35 14 650 650 650 650 650 650 650 650 59 650 650 650 6 650 650 650 650 650 650 650 650 650 650 650 18 650 650 650 10 650 30 650 8 650 650 650 650 650 650 22 650 650 9 15 650 650 8 650 650
14 650 650 650 650 650 650 16 33 650 650 650 650 650 3 19 5 650 650 10 650 650 650 4 650 650 650 650 650 650 0 16 650 650 650 650 650 650 650 650 650 650 650 42 650 650 24 650 650 650 650 8 650 650 10 650 650 17 650 650 650 650 650 650 650 650 650 650 650 650 650 650 650 650 650 650 650 650 650 650 650 650 17 650 650 650 650 650 650 650 12 650 7 10 650 650 650 650 10 650 650 650 650
650 650 650 650 650 650 650 4 650 650 650 650 650 650 13 31 17 650 650 14 9 650 650 15 650 650 650 650 17 19 16 0 650 650 650 650 650 650 650 650 650 650 650 54 650 650 650 650 650 17 650 22 650 32 650 650 650 650 650 650 650 650 650 650 650 650 14 650 650 650 650 650 650 650 650 650 650 650 12 650 650 650 16 650 650 650 13 650 650 650 650 650 9 20 650 650 14 650 10 650 650 650 650
650 14 650 650 650 12 650 650 650 19 650 32 650 650 650 650 650 650 13 650 650 650 31 650 650 650 650 650 650 650 650 650 0 650 650 58 6 650 48 650 650 650 9 650 650 28 650 650 650 650 650 650 650 650 650 7 650 650 30 650 650 22 650 28 650 650 650 650 21 21 650 30 650 650 650 12 19 650 650 650 650 650 650 29 650 650 650 650 11 42 650 650 650 650 650 25 650 650 650 25 650 650 650
15 650 650 650 3 650 650 650 15 650 650 650 650 650 650 19 650 22 650 650 650 650 650 650 650 650 7 24 650 650 650 650 650 0 31 650 650 25 650 650 650 650 650 24 650 650 14 650 650 650 650 650 650 650 20 650 650 650 650 650 650 650 650 650 650 13 650 650 650 650 26 650 650 650 650 650 650 22 650 23 18 650 650 650 650 650 650 29 650 650 19 650 650 650 650 650 650 650 650 650 650 650 6
650 650 650 650 32 650 650 650 45 650 650 650 650 37 650 36 650 650 650 650 650 650 650 650 650 650 24 650 650 650 650 650 650 31 0 650 650 25 650 650 650 650 650 13 650 650 30 650 650 650 650 650 650 650 650 650 650 650 650 650 650 650 650 650 650 24 650 650 650 650 50 650 650 38 650 650 650 35 650 34 25 650 650 650 650 650 650 46 650 650 650 650 650 650 54 650 650 650 650 650 650 59 26
650 650 650 16 650 47 650 650 650 40 650 650 650 650 650 650 650 650 650 650 650 650 30 650 650 650 650 650 650 650 650 650 58 650 650 0 650 650 41 650 650 650 650 650 650 650 650 650 4 650 650 650 45 650 650 650 15 650 29 650 6 650 24 40 650 650 650 10 650 650 650 35 650 650 6 650 40 650 650 650 650 34 650 650 650 650 650 650 650 650 650 650 650 650 650 650 650 650 650 650 650 650 650
650 15 650 650 650 14 650 650 650 23 650 650 650 650 650 650 650 650 17 650 650 650 650 650 650 650 650 650 650 650 650 650 6 650 650 650 0 650 650 650 650 650 10 650 650 650 650 650 650 650 24 650 650 650 650 4 650 650 32 650 650 650 650 650 650 650 650 650 18 27 650 650 650 650 650 12 22 650 650 650 650 650 650 650 650 650 650 650 12 650 650 650 650 650 650 650 650 650 650 650 650 650 650
650 650 650 650 650 650 650 650 30 650 650 650 650 13 650 650 650 650 650 650 650 650 650 650 650 650 21 650 650 650 650 650 650 25 25 650 650 0 650 650 650 650 650 30 650 650 650 650 650 650 54 650 650 650 650 650 650 650 650 650 650 650 650 650 650 13 650 650 650 650 650 650 650 12 650 650 650 13 650 10 7 650 650 38 650 650 650 22 650 650 650 650 650 650 29 650 650 650 650 650 650 34 650
650 650 18 25 650 650 1 650 650 32 8 650 6 650 650 650 650 650 650 650 650 5 25 650 10 650 650 650 650 650 650 650 48 650 650 41 650 650 0 6 26 25 650 650 13 650 650 650 650 650 650 650 22 650 650 650 650 650 37 650 650 650 31 19 11 650 650 650 650 29 650 21 20 650 650 650 650 650 650 650 650 8 650 650 650 650 650 650 650 12 650 650 650 650 650 650 650 650 650 29 650 650 650
650 650 17 650 650 650 6 650 650 650 7 650 3 650 650 650 650 650 650 650 650 2 650 650 4 650 650 650 650 650 650 650 650 650 650 650 650 650 6 0 21 19 650 650 8 650 650 650 650 650 650 650 17 650 650 650 650 650 650 650 650 650 650 650 14 650 650 650 650 650 650 650 650 650 650 650 650 650 650 650 650 10 650 650 17 650 650 650 650 15 650 650 650 650 650 650 650 34 650 650 33 650 650
650 650 650 33 650 650 650 650 650 650 21 650 20 650 650 650 650 650 650 650 650 650 47 650 19 650 650 650 37 34 650 650 650 650 650 650 650 650 26 21 0 6 650 650 21 650 650 26 650 36 650 650 5 28 650 650 33 650 650 650 650 650 26 650 650 650 650 650 650 650 650 650 650 650 650 650 650 650 650 650 650 22 650 650 30 650 650 650 650 650 650 650 650 650 650 650 650 21 650 650 31 650 650
650 650 29 36 650 650 650 650 650 650 21 650 19 650 650 650 650 650 650 650 650 21 650 650 16 650 650 42 33 29 650 650 650 650 650 650 650 650 25 19 6 0 650 650 17 650 650 23 650 31 650 650 6 25 650 650 650 35 650 650 650 650 30 650 33 650 32 650 650 650 650 650 650 650 650 650 650 650 650 650 650 23 650 650 26 650 650 650 650 650 650 650 650 38 650 650 650 17 650 650 26 650 650
650 5 650 650 650 21 650 650 650 27 650 650 650 650 650 650 650 650 9 650 650 650 650 650 650 650 650 650 650 650 650 650 9 650 650 650 10 650 650 650 650 650 0 650 650 24 650 650 650 650 17 650 650 650 650 8 650 650 650 650 650 14 650 34 650 650 650 650 15 23 650 650 650 650 650 20 27 650 650 650 650 650 650 22 650 650 650 650 2 650 650 650 650 650 650 26 650 650 650 26 650 650 650
32 650 650 650 24 650 650 52 39 650 650 650 650 650 44 24 650 650 650 39 62 650 650 40 650 650 18 650 68 650 42 54 650 24 13 650 650 30 650 650 650 650 650 0 650 650 18 650 650 650 650 34 650 650 35 650 650 650 650 650 650 650 650 650 650 23 650 650 650 650 650 650 650 650 650 650 650 36 65 650 26 650 650 650 650 650 650 650 650 650 650 650 48 650 650 650 650 650 52 650 650 650 18
650 650 13 650 650 650 13 650 650 650 15 650 11 650 650 650 650 650 650 650 650 9 650 650 5 650 650 27 650 32 650 650 650 650 650 650 650 650 13 8 21 17 650 650 0 650 650 34 650 33 650 650 17 36 650 650 650 23 650 650 650 650 37 32 16 650 650 650 650 650 650 650 23 650 650 650 650 650 650 650 650 650 30 650 11 650 650 650 650 17 37 36 650 29 650 650 650 28 650 36 25 650 650
650 22 650 650 650 650 650 650 28 35 650 13 650 27 650 650 650 22 15 650 650 650 650 650 650 17 650 650 650 650 650 650 28 650 650 650 650 650 650 650 650 650 24 650 650 0 650 650 650 650 29 650 650 650 650 650 650 650 650 6 650 17 650 32 650 650 650 650 650 18 15 650 25 28 650 650 650 27 650 650 650 650 650 10 650 13 650 18 23 650 650 19 650 650 25 15 650 650 650 15 650 15 650
14 650 650 650 12 650 650 36 27 650 650 650 650 650 650 7 650 650 650 24 650 650 650 23 650 650 14 32 650 650 24 650 650 14 30 650 650 650 650 650 650 650 650 18 650 650 0 650 650 650 650 17 650 650 17 650 650 650 650 650 650 650 650 650 650 23 650 650 650 650 650 650 650 650 650 650 650 650 49 650 650 650 650 650 650 650 650 650 650 650 19 650 30 650 650 650 650 650 650 650 650 650 11
650 650 650 58 650 650 650 650 650 650 43 650 650 650 650 650 650 650 650 650 650 650 650 650 36 650 650 650 17 15 650 650 650 650 650 650 650 650 650 650 26 23 650 650 34 650 650 0 650 18 650 650 29 2 650 650 650 650 650 650 650 650 50 650 650 650 650 650 650 650 650 650 650 650 650 650 650 650 29 650 650 45 650 650 650 650 650 650 650 650 650 650 650 650 650 650 650 6 650 650 20 650 650
650 650 650 15 650 650 650 650 650 650 650 650 650 650 650 650 650 650 650 650 650 650 32 650 650 650 650 650 650 650 650 650 650 650 650 4 650 650 650 650 650 650 650 650 650 650 650 650 0 650 650 650 650 650 650 650 12 650 650 650 3 650 20 650 650 650 650 8 650 650 650 650 650 650 4 650 650 650 650 650 650 650 650 650 650 650 650 650 650 650 650 650 650 650 650 650 650 650 650 650 650 650 650
650 650 650 650 650 650 650 650 650 650 650 650 650 650 650 650 650 650 650 650 8 650 650 650 650 650 650 650 4 3 650 17 650 650 650 650 650 650 650 650 36 31 650 650 33 650 650 18 650 0 650 650 650 17 650 650 650 25 650 650 650 650 650 650 650 650 3 650 650 650 650 650 650 650 650 650 650 650 17 650 650 650 7 650 650 650 6 650 650 650 650 650 650 20 650 650 7 17 14 650 8 650 650
650 12 650 650 650 650 650 650 650 650 650 650 650 43 650 650 650 650 21 650 650 650 650 650 650 650 650 650 650 650 650 650 650 650 650 650 24 54 650 650 650 650 17 650 650 29 650 650 650 650 0 650 650 650 650 20 650 650 650 650 650 13 650 650 650 650 650 650 11 650 650 650 650 42 650 650 650 650 650 650 650 650 650 22 650 650 650 37 15 650 650 650 650 650 26 650 650 650 650 650 650 21 650
10 650 650 650 21 650 650 21 30 650 650 650 650 650 10 10 12 650 650 9 650 650 650 7 650 650 650 27 650 650 8 22 650 650 650 650 650 650 650 650 650 650 650 34 650 650 17 650 650 650 650 0 650 650 7 650 650 650 650 650 650 650 650 650 650 650 650 650 650 650 650 650 650 650 650 650 650 650 33 650 650 650 650 650 650 650 650 650 650 650 11 650 14 17 650 650 650 650 18 650 650 650 24
650 650 650 30 650 650 22 650 650 650 16 650 16 650 650 650 650 650 650 650 650 18 43 650 15 650 650 650 650 35 650 650 650 650 650 45 650 650 22 17 5 6 650 650 17 650 650 29 650 650 650 650 0 31 650 650 31 650 650 650 44 650 24 41 650 650 650 35 650 650 650 41 650 650 650 650 650 650 650 650 650 18 650 650 27 650 650 650 650 650 650 650 650 650 650 650 650 24 650 650 31 650 650
650 650 650 650 650 650 650 36 650 650 650 650 650 650 650 650 650 650 650 650 23 650 650 650 650 650 650 650 16 14 650 32 650 650 650 650 650 650 650 650 28 25 650 650 36 650 650 2 650 17 650 650 31 0 650 650 650 650 650 650 650 650 53 650 650 650 20 650 650 650 650 650 650 650 650 650 650 650 27 650 650 650 650 650 650 650 23 650 650 650 650 650 650 650 650 650 650 8 31 650 20 650 650
4 650 650 650 17 650 650 650 24 650 650 650 650 650 12 13 11 29 650 16 650 650 650 11 650 650 650 20 650 650 10 650 650 20 650 650 650 650 650 650 650 650 650 35 650 650 17 650 650 650 650 7 650 650 0 650 650 17 650 650 650 650 650 650 650 650 650 650 650 650 650 650 650 650 650 650 650 650 650 650 650 650 25 650 650 650 650 650 650 650 4 650 17 14 650 650 650 650 19 650 29 650 650
650 12 650 650 650 17 650 650 650 26 650 650 650 650 650 650 650 650 16 650 650 650 650 650 650 650 650 650 650 650 650 650 7 650 650 650 4 650 650 650 650 650 8 650 650 650 650 650 650 650 20 650 650 650 650 0 650 650 35 650 650 21 650 650 650 650 650 650 14 28 650 650 650 650 650 16 25 650 650 650 650 650 650 650 650 650 650 650 9 650 650 650 650 650 650 31 650 650 650 650 650 650 650
650 650 650 10 650 650 650 650 650 650 26 650 650 650 650 650 650 650 650 650 650 650 32 650 650 650 650 650 650 650 650 650 650 650 650 15 650 650 650 650 33 650 650 650 650 650 650 650 12 650 650 650 31 650 650 650 0 650 37 650 14 650 8 650 650 650 650 7 650 650 650 35 650 650 9 650 650 650 650 650 650 24 650 650 650 650 650 650 650 650 650 650 650 650 650 650 650 650 650 650 650 650 650
19 650 16 650 29 650 650 650 25 650 650 650 650 650 18 650 13 26 650 650 650 650 650 650 28 650 650 12 650 650 17 650 650 650 650 650 650 650 650 650 650 35 650 650 23 650 650 650 650 25 650 650 650 650 17 650 650 0 650 650 650 650 650 650 28 650 23 650 650 650 35 650 26 650 650 650 650 650 650 650 650 650 18 650 13 650 650 650 650 28 14 28 650 8 650 650 19 33 19 650 19 650 650
650 650 650 29 650 18 650 650 650 14 650 650 650 650 650 650 650 650 39 650 650 650 12 650 650 650 650 650 650 650 650 650 30 650 650 29 32 650 37 650 650 650 650 650 650 650 650 650 650 650 650 650 650 650 650 35 37 650 0 650 650 650 44 23 650 650 650 31 49 31 650 18 650 650 32 20 13 650 650 650 650 37 650 650 650 650 650 650 650 650 650 650 650 650 650 650 650 650 650 650 650 650 650
650 650 650 650 650 650 650 650 22 650 650 9 650 26 650 650 650 16 21 650 650 650 650 650 650 11 650 28 650 650 650 650 650 650 650 650 650 650 650 650 650 650 650 650 650 6 650 650 650 650 650 650 650 650 650 650 650 650 650 0 650 23 650 650 650 35 650 650 650 19 9 650 20 28 650 650 650 25 650 28 650 650 650 15 650 9 650 17 650 650 650 13 650 650 28 15 650 650 650 15 650 20 650
650 650 650 18 650 650 650 650 650 650 650 650 650 650 650 650 650 650 650 650 650 650 35 650 650 650 650 650 650 650 650 650 650 650 650 6 650 650 650 650 650 650 650 650 650 650 650 650 3 650 650 650 44 650 650 650 14 650 650 650 0 650 21 650 650 650 650 11 650 650 650 650 650 650 6 650 650 650 650 650 650 36 650 650 650 650 650 650 650 650 650 650 650 650 650 650 650 650 650 650 650 650 650
650 9 650 650 650 650 650 650 650 650 650 28 650 650 650 650 650 650 12 650 650 650 650 650 650 650 650 650 650 650 650 650 22 650 650 650 650 650 650 650 650 650 14 650 650 17 650 650 650 650 13 650 650 650 650 21 650 650 650 23 650 0 650 650 650 650 650 650 20 27 650 650 650 34 650 650 650 650 650 650 650 650 650 10 650 650 650 27 12 650 650 650 650 650 21 27 650 650 650 650 650 12 650
650 650 650 15 650 650 650 650 650 49 24 650 28 650 650 650 650 650 650 650 650 650 37 650 32 650 650 650 650 59 650 650 650 650 650 24 650 650 31 650 26 30 650 650 37 650 650 50 20 650 650 650 24 53 650 650 8 650 44 650 21 650 0 650 650 650 650 15 650 650 650 39 650 650 18 650 650 650 650 650 650 23 650 650 650 650 650 650 650 650 650 650 650 650 650 650 650 47 650 650 56 650 650
650 650 30 29 650 24 20 650 650 14 25 23 25 650 650 650 650 650 29 650 650 24 12 650 650 650 650 40 650 650 650 650 28 650 650 40 650 650 19 650 650 650 34 650 32 32 650 650 650 650 650 650 41 650 650 650 650 650 23 650 650 650 650 0 18 650 650 650 650 14 650 5 22 650 650 650 15 650 650 650 650 24 650 650 34 23 650 650 650 18 650 35 650 650 650 17 650 650 650 17 650 650 650
650 650 12 650 650 650 11 650 650 31 19 650 16 650 650 650 650 650 650 650 650 13 28 650 16 650 650 24 650 650 650 650 650 650 650 650 650 650 11 14 650 33 650 650 16 650 650 650 650 650 650 650 650 650 650 650 650 28 650 650 650 650 650 18 0 650 650 650 650 22 650 22 9 650 650 650 650 650 650 650 650 20 650 650 16 19 650 650 650 1 650 25 650 650 650 20 650 650 650 20 38 650 650
28 650 650 650 16 650 650 650 21 650 650 650 650 17 650 650 650 26 650 650 650 650 650 650 650 29 9 34 650 650 650 650 650 13 24 650 650 13 650 650 650 650 650 23 650 650 23 650 650 650 650 650 650 650 650 650 650 650 650 35 650 650 650 650 650 0 650 650 650 650 26 650 650 19 650 650 650 13 650 13 5 650 650 650 650 650 650 23 650 650 32 650 650 650 36 650 650 650 650 650 650 650 12
650 650 650 650 650 650 650 18 650 650 650 650 650 650 650 650 18 650 650 650 7 650 650 650 650 650 650 650 6 6 650 14 650 650 650 650 650 650 650 650 650 32 650 650 650 650 650 650 650 3 650 650 650 20 650 650 650 23 650 650 650 650 650 650 650 650 0 650 650 650 650 650 650 650 650 650 650 650 17 650 650 650 5 650 29 650 3 650 650 650 29 650 16 18 650 650 4 20 11 650 8 650 650
650 650 650 7 650 650 650 650 650 38 650 650 650 650 650 650 650 650 650 650 650 650 27 650 650 650 650 650 650 650 650 650 650 650 650 10 650 650 650 650 650 650 650 650 650 650 650 650 8 650 650 650 35 650 650 650 7 650 31 650 11 650 15 650 650 650 650 0 650 650 650 31 650 650 4 650 650 650 650 650 650 25 650 650 650 650 650 650 650 650 650 650 650 650 650 650 650 650 650 650 650 650 650
650 13 650 650 650 32 650 650 650 650 650 650 650 650 650 650 650 650 23 650 650 650 650 650 650 650 650 650 650 650 650 650 21 650 650 650 18 650 650 650 650 650 15 650 650 650 650 650 650 650 11 650 650 650 650 14 650 650 49 650 650 20 650 650 650 650 650 650 0 650 650 650 650 650 650 30 40 650 650 650 650 650 650 30 650 650 650 650 15 650 650 650 650 650 37 650 650 650 650 650 650 31 650
650 26 32 650 650 23 650 650 650 18 650 13 650 650 650 650 650 650 17 650 650 650 24 650 650 26 650 650 650 650 650 650 21 650 650 650 27 650 29 650 650 650 23 650 650 18 650 650 650 650 650 650 650 650 650 28 650 650 31 19 650 27 650 14 22 650 650 650 650 0 650 18 20 650 650 26 18 650 650 650 650 35 650 26 650 13 650 35 24 21 650 650 650 650 650 5 650 650 650 5 650 650 650
34 650 650 650 28 650 650 650 13 650 650 15 650 20 650 650 650 9 30 650 650 650 650 650 650 7 30 23 650 650 650 650 650 26 50 650 650 650 650 650 650 650 650 650 650 15 650 650 650 650 650 650 650 650 650 650 650 35 650 9 650 650 650 650 650 26 650 650 650 650 0 650 23 22 650 650 650 17 650 21 27 650 650 20 650 16 650 12 650 650 34 8 650 650 28 23 650 650 650 23 650 23 650
650 650 34 25 650 23 21 650 650 12 25 650 26 650 650 650 650 650 32 650 650 25 7 650 650 650 650 650 650 650 650 650 30 650 650 35 650 650 21 650 650 650 650 650 650 650 650 650 650 650 650 650 41 650 650 650 35 650 18 650 650 650 39 5 22 650 650 31 650 18 650 0 650 650 650 650 13 650 650 650 650 23 650 650 650 650 650 650 650 22 650 650 650 650 650 22 650 650 650 22 650 650 650
650 650 12 650 650 650 650 650 24 34 650 13 650 650 650 650 650 19 650 650 650 21 650 650 650 17 650 18 650 650 650 650 650 650 650 650 650 650 20 650 650 650 650 650 23 25 650 650 650 650 650 650 650 650 650 650 650 26 650 20 650 650 650 22 9 650 650 650 650 20 23 650 0 650 650 650 650 650 650 650 650 650 650 650 18 12 650 650 650 8 34 16 650 650 650 16 650 650 650 16 40 650 650
650 650 650 650 650 650 650 650 28 650 650 650 650 3 650 650 650 650 650 650 650 650 650 650 650 650 650 650 650 650 650 650 650 650 38 650 650 12 650 650 650 650 650 650 650 28 650 650 650 650 42 650 650 650 650 650 650 650 650 28 650 34 650 650 650 19 650 650 650 650 22 650 650 0 650 650 650 8 650 6 15 650 650 25 650 650 650 11 650 650 650 650 650 650 17 650 650 650 650 650 650 22 650
650 650 650 12 650 650 650 650 650 650 650 650 650 650 650 650 650 650 650 650 650 650 30 650 650 650 650 650 650 650 650 650 650 650 650 6 650 650 650 650 650 650 650 650 650 650 650 650 4 650 650 650 650 650 650 650 9 650 32 650 6 650 18 650 650 650 650 4 650 650 650 650 650 650 0 650 650 650 650 650 650 29 650 650 650 650 650 650 650 650 650 650 650 650 650 650 650 650 650 650 650 650 650
650 25 650 650 650 3 650 650 650 14 650 650 650 650 650 650 650 650 24 650 650 650 25 650 650 650 650 650 650 650 650 650 12 650 650 650 12 650 650 650 650 650 20 650 650 650 650 650 650 650 650 650 650 650 650 16 650 650 20 650 650 650 650 650 650 650 650 650 30 26 650 650 650 650 650 0 13 650 650 650 650 650 650 650 650 650 650 650 22 650 650 650 650 650 650 650 650 650 650 650 650 650 650
650 650 650 35 650 10 650 650 650 1 650 650 650 650 650 650 650 650 26 650 650 650 12 650 650 650 650 650 650 650 650 650 19 650 650 40 22 650 650 650 650 650 27 650 650 650 650 650 650 650 650 650 650 650 650 25 650 650 13 650 650 650 650 15 650 650 650 650 40 18 650 13 650 650 650 13 0 650 650 650 650 36 650 650 650 650 650 650 650 650 650 650 650 650 650 23 650 650 650 24 650 650 650
36 650 650 650 25 650 650 650 20 650 650 33 650 5 650 650 650 22 650 650 650 650 650 650 650 23 22 34 650 650 650 650 650 22 35 650 650 13 650 650 650 650 650 36 650 27 650 650 650 650 650 650 650 650 650 650 650 650 650 25 650 650 650 650 650 13 650 650 650 650 17 650 650 8 650 650 650 0 650 3 11 650 650 27 650 650 650 10 650 650 38 24 650 650 24 650 650 650 650 650 650 25 24
650 650 650 650 650 650 650 13 650 650 650 650 650 650 24 42 650 650 650 25 10 650 650 26 650 650 650 650 14 18 650 12 650 650 650 650 650 650 650 650 650 650 650 65 650 650 49 29 650 17 650 33 650 27 650 650 650 650 650 650 650 650 650 650 650 650 17 650 650 650 650 650 650 650 650 650 650 650 0 650 650 650 650 650 650 650 17 650 650 650 650 650 20 650 650 650 18 31 19 650 24 650 650
650 650 650 650 650 650 650 650 24 650 650 650 650 4 650 650 650 650 650 650 650 650 650 650 650 650 22 650 650 650 650 650 650 23 34 650 650 10 650 650 650 650 650 650 650 650 650 650 650 650 650 650 650 650 650 650 650 650 650 28 650 650 650 650 650 13 650 650 650 650 21 650 650 6 650 650 650 3 650 0 10 650 650 650 650 650 650 12 650 650 650 650 650 650 23 650 650 650 650 650 650 26 650
650 650 650 650 21 650 650 650 24 650 650 650 650 14 650 650 650 28 650 650 650 650 650 650 650 650 14 650 650 650 650 650 650 18 25 650 650 7 650 650 650 650 650 26 650 650 650 650 650 650 650 650 650 650 650 650 650 650 650 650 650 650 650 650 650 5 650 650 650 650 27 650 650 15 650 650 650 11 650 10 0 650 650 650 650 650 650 21 650 650 650 650 650 650 32 650 650 650 650 650 650 650 17
650 650 650 18 650 650 9 650 650 35 3 650 6 650 650 650 650 650 650 650 650 9 25 650 12 650 650 650 650 650 650 650 650 650 650 34 650 650 8 10 22 23 650 650 650 650 650 45 650 650 650 650 18 650 650 650 24 650 37 650 36 650 23 24 20 650 650 25 650 35 650 23 650 650 29 650 36 650 650 650 650 0 650 650 650 650 650 650 650 21 650 650 650 650 650 650 650 39 650 650 650 650 650
650 650 650 650 650 650 650 650 650 650 650 650 650 650 15 650 14 650 650 650 11 650 650 650 650 650 650 30 11 10 17 16 650 650 650 650 650 650 650 650 650 650 650 650 30 650 650 650 650 7 650 650 650 650 25 650 650 18 650 650 650 650 650 650 650 650 5 650 650 650 650 650 650 650 650 650 650 650 650 650 650 650 0 650 25 650 3 650 650 650 25 650 14 13 650 650 2 22 9 650 6 650 650
650 18 650 650 650 650 650 650 650 650 650 22 650 25 650 650 650 650 15 650 650 650 650 650 650 25 650 650 650 650 650 650 29 650 650 650 650 38 650 650 650 650 22 650 650 10 650 650 650 650 22 650 650 650 650 650 650 650 650 15 650 10 650 650 650 650 650 650 30 26 20 650 650 25 650 650 650 27 650 650 650 650 650 0 650 650 650 17 20 650 650 650 650 650 17 24 650 650 650 24 650 6 650
32 650 6 650 650 650 19 650 30 650 650 650 650 650 650 650 26 28 650 650 650 17 650 650 15 650 650 16 650 30 650 650 650 650 650 650 650 650 650 17 30 26 650 650 11 650 650 650 650 650 650 650 27 650 650 650 650 13 650 650 650 650 650 34 16 650 29 650 650 650 650 650 18 650 650 650 650 650 650 650 650 650 25 650 0 30 650 650 650 16 27 27 650 21 650 650 650 31 29 34 22 650 650
650 650 24 650 650 650 650 650 24 650 650 1 650 650 650 650 650 17 22 650 650 650 650 650 650 12 650 25 650 650 650 650 650 650 650 650 650 650 650 650 650 650 650 650 650 13 650 650 650 650 650 650 650 650 650 650 650 650 650 9 650 650 650 23 19 650 650 650 650 13 16 650 12 650 650 650 650 650 650 650 650 650 650 650 30 0 650 26 650 18 650 13 650 650 650 8 650 650 650 8 650 650 650
650 650 650 650 650 650 650 17 650 650 650 650 650 650 16 650 15 650 650 650 7 650 650 650 650 650 650 650 9 8 650 13 650 650 650 650 650 650 650 650 650 650 650 650 650 650 650 650 650 6 650 650 650 23 650 650 650 650 650 650 650 650 650 650 650 650 3 650 650 650 650 650 650 650 650 650 650 650 17 650 650 650 3 650 650 650 0 650 650 650 650 650 13 15 650 650 2 650 8 650 8 650 650
650 35 650 650 650 650 650 650 22 650 650 25 650 9 650 650 650 20 31 650 650 650 650 650 650 19 650 34 650 650 650 650 650 29 46 650 650 22 650 650 650 650 650 650 650 18 650 650 650 650 37 650 650 650 650 650 650 650 650 17 650 27 650 650 650 23 650 650 650 35 12 650 650 11 650 650 650 10 650 12 21 650 650 17 650 26 650 0 650 650 650 21 650 650 17 31 650 650 650 31 650 16 650
650 3 650 650 650 650 650 650 650 29 650 650 650 650 650 650 650 650 9 650 650 650 650 650 650 650 650 650 650 650 650 650 11 650 650 650 12 650 650 650 650 650 2 650 650 23 650 650 650 650 15 650 650 650 650 9 650 650 650 650 650 12 650 650 650 650 650 650 15 24 650 650 650 650 650 22 650 650 650 650 650 650 650 20 650 650 650 650 0 650 650 650 650 650 650 26 650 650 650 650 650 24 650
650 650 12 650 650 650 12 650 650 32 650 19 650 650 650 650 650 26 37 650 650 14 650 650 650 24 650 23 650 650 650 650 42 650 650 650 650 650 12 15 650 650 650 650 17 650 650 650 650 650 650 650 650 650 650 650 650 28 650 650 650 650 650 18 1 650 650 650 650 21 650 22 8 650 650 650 650 650 650 650 650 21 650 650 16 18 650 650 650 0 650 24 650 650 650 19 650 650 650 19 38 650 650
5 650 28 650 17 650 650 650 21 650 650 650 650 650 14 16 12 25 650 19 650 650 650 14 650 30 650 16 650 650 12 650 650 19 650 650 650 650 650 650 650 650 650 650 37 650 19 650 650 650 650 11 650 650 4 650 650 14 650 650 650 650 650 650 650 32 29 650 650 650 34 650 34 650 650 650 650 38 650 650 650 650 25 650 27 650 650 650 650 650 0 28 19 13 650 650 26 650 20 650 29 650 22
29 650 23 650 650 650 650 650 10 650 650 13 650 650 650 650 650 4 650 650 650 650 650 650 650 2 650 15 650 650 650 650 650 650 650 650 650 650 650 650 650 650 650 650 36 19 650 650 650 650 650 650 650 650 650 650 650 28 650 13 650 650 650 35 25 650 650 650 650 650 8 650 16 650 650 650 650 24 650 650 650 650 650 650 27 13 650 21 650 24 28 0 650 650 650 21 650 650 650 21 650 650 650
21 650 650 650 650 650 650 10 650 650 650 650 650 650 4 24 9 650 650 10 14 650 650 8 650 650 650 650 21 650 7 9 650 650 650 650 650 650 650 650 650 650 650 48 650 650 30 650 650 650 650 14 650 650 17 650 650 650 650 650 650 650 650 650 650 650 16 650 650 650 650 650 650 650 650 650 650 650 20 650 650 650 14 650 650 650 13 650 650 650 19 650 0 13 650 650 13 650 5 650 650 650 650
17 650 24 650 650 650 650 650 30 650 650 650 650 650 10 650 5 32 650 650 21 650 650 14 650 650 650 19 24 22 10 20 650 650 650 650 650 650 650 650 650 38 650 650 29 650 650 650 650 20 650 17 650 650 14 650 650 8 650 650 650 650 650 650 650 650 18 650 650 650 650 650 650 650 650 650 650 650 650 650 650 650 13 650 21 650 15 650 650 650 13 650 13 0 650 650 14 650 11 650 16 650 650
650 30 650 650 650 650 650 650 650 650 650 650 650 19 650 650 650 650 31 650 650 650 650 650 650 650 45 650 650 650 650 650 650 650 54 650 650 29 650 650 650 650 650 650 650 25 650 650 650 650 26 650 650 650 650 650 650 650 650 28 650 21 650 650 650 36 650 650 37 650 28 650 650 17 650 650 650 24 650 23 32 650 650 17 650 650 650 17 650 650 650 650 650 650 0 650 650 650 650 650 650 11 650
650 28 650 650 650 650 650 650 650 23 650 8 650 650 650 650 650 650 18 650 650 650 650 650 650 20 650 650 650 650 650 650 25 650 650 650 650 650 650 650 650 650 26 650 650 15 650 650 650 650 650 650 650 650 650 31 650 650 650 15 650 27 650 17 20 650 650 650 650 5 23 22 16 650 650 650 23 650 650 650 650 650 650 24 650 8 650 31 26 19 650 21 650 650 650 0 650 650 650 1 650 30 650
650 650 650 650 650 650 650 650 650 650 650 650 650 650 15 650 14 650 650 650 9 650 650 650 650 650 650 650 10 9 650 14 650 650 650 650 650 650 650 650 650 650 650 650 650 650 650 650 650 7 650 650 650 650 650 650 650 19 650 650 650 650 650 650 650 650 4 650 650 650 650 650 650 650 650 650 650 650 18 650 650 650 2 650 650 650 2 650 650 650 26 650 13 14 650 650 0 650 8 650 8 650 650
650 650 37 650 650 650 650 650 650 650 650 650 35 650 650 650 650 650 650 650 25 650 650 650 30 650 650 650 17 15 650 650 650 650 650 650 650 650 650 34 21 17 650 650 28 650 650 6 650 17 650 650 24 8 650 650 650 33 650 650 650 650 47 650 650 650 20 650 650 650 650 650 650 650 650 650 650 650 31 650 650 39 22 650 31 650 650 650 650 650 650 650 650 650 650 650 650 0 650 650 17 650 650
23 650 650 650 650 650 650 12 650 650 650 650 650 650 7 650 8 650 650 15 12 650 650 12 650 650 650 30 17 650 10 10 650 650 650 650 650 650 650 650 650 650 650 52 650 650 650 650 650 14 650 18 650 31 19 650 650 19 650 650 650 650 650 650 650 650 11 650 650 650 650 650 650 650 650 650 650 650 19 650 650 650 9 650 29 650 8 650 650 650 20 650 5 11 650 650 8 650 0 650 15 650 650
650 650 28 650 650 650 29 650 650 23 650 8 650 650 650 650 650 25 18 650 650 650 28 650 650 20 650 31 650 650 650 650 25 650 650 650 650 650 29 650 650 650 26 650 36 15 650 650 650 650 650 650 650 650 650 650 650 650 650 15 650 650 650 17 20 650 650 650 650 5 23 22 16 650 650 650 24 650 650 650 650 650 650 24 34 8 650 31 650 19 650 21 650 650 650 1 650 650 650 0 650 650 650
650 650 28 650 650 650 650 650 44 650 650 650 36 650 21 650 19 650 650 650 15 34 650 650 29 650 650 31 12 8 650 650 650 650 650 650 650 650 650 33 31 26 650 650 25 650 650 20 650 8 650 650 31 20 29 650 650 19 650 650 650 650 56 650 38 650 8 650 650 650 650 650 40 650 650 650 650 650 24 650 650 650 6 650 22 650 8 650 650 38 29 650 650 16 650 650 8 17 15 650 0 650 650
650 21 650 650 650 650 650 650 650 650 650 28 650 22 650 650 650 650 21 650 650 650 650 650 650 650 650 650 650 650 650 650 650 650 59 650 650 34 650 650 650 650 650 650 650 15 650 650 650 650 21 650 650 650 650 650 650 650 650 20 650 12 650 650 650 650 650 650 31 650 23 650 650 22 650 650 650 25 650 26 650 650 650 6 650 650 650 16 24 650 650 650 650 650 11 30 650 650 650 650 650 0 650
18 650 650 650 6 650 650 45 21 650 650 650 650 650 650 17 650 650 650 33 650 650 650 650 650 650 3 650 650 650 650 650 650 6 26 650 650 650 650 650 650 650 650 18 650 650 11 650 650 650 650 24 650 650 650 650 650 650 650 650 650 650 650 650 650 12 650 650 650 650 650 650 650 650 650 650 650 24 650 650 17 650 650 650 650 650 650 650 650 650 22 650 650 650 650 650 650 650 650 650 650 650 0
EOF
